100 8
532 782
309 876
373 236
172 797
393 896
496 917
261 918
654 411
526 335
862 505
468 760
414 665
456 714
547 790
248 897
206 441
28 512
214 825
145 305
438 555
449 347
186 450
255 857
264 962
252 882
413 508
505 966
725 976
263 319
293 214
606 385
739 541
404 617
344 903
860 561
495 177
489 40
384 652
155 520
48 375
395 593
391 608
489 321
324 276
333 259
420 546
313 896
312 725
365 588
257 419
634 150
307 310
802 518
304 337
695 408
203 503
529 972
98 539
54 505
412 692
588 792
119 378
328 966
160 806
467 837
380 733
744 517
201 809
406 444
407 655
469 646
517 535
337 202
187 898
378 714
666 825
393 161
194 193
420 885
357 841
550 349
288 118
150 382
320 881
880 659
327 750
146 844
697 900
304 865
532 334
439 933
352 192
726 818
521 571
489 553
297 895
110 509
538 820
223 146
332 367
